\ENCODING=ISO-8859-1
\Problem name: IloCplex_conflict

Minimize
 obj1:
Subject To
 c85:   - y_13_0 + y_12_5  = 0
 c567:  y_12_5 >= 2.29999995231628
 c592:  - x_13_0 >= -0.5
 c3865: - 0.337568432092667 y_13_0 + 0.941300988197327 x_13_0
        >= -0.303536170401181
\Sum of equality rows in the conflict:
\ sum_eq: - y_13_0 + y_12_5  = 0
Bounds
      y_13_0 Free
      y_12_5 Free
      x_13_0 Free
End
